1081030
79,29,51,25,78,95,73,7,66,4,16,15,61,67,27,2,64,5,3,36,68,63,13,80,99,38,76,87,45,81,39,92,84,22,59,90,71,34,46,28,11,23,98,54,65,14,86,37,32,62,93,49,75,69,6,41,18,10,56,77,30,96,21,20,9,33,57,47,1,48,74,70,60,31,72,55,44,53,89,85,8,91,97,42,35,50,88,83,58,82,52,43,24,19,26,94,12,17,40